2 30
338 287 
0 51 9 28 27 60 47 2
1 16 57 32 92 32 57 1
2 33 99 42 70 34 87 2
3 89 96 66 43 99 80 2
4 3 57 79 8 31 55 2
5 98 31 7 85 65 17 2
6 83 66 39 93 76 96 1
7 9 73 49 11 56 83 1
8 48 10 8 85 50 72 2
9 8 63 68 10 90 97 2
10 68 69 53 15 73 72 2
11 8 96 73 7 38 97 1
12 68 97 29 48 28 86 2
13 99 17 40 64 6 99 1
14 76 66 49 100 28 54 2
15 29 42 74 64 58 13 1
16 71 22 16 9 54 8 2
17 79 89 16 84 77 7 1
18 100 98 36 21 81 41 1
19 27 47 23 14 92 89 2
20 99 82 95 89 56 50 1
21 96 33 57 99 37 97 1
22 61 17 14 68 50 25 2
23 13 44 6 18 5 99 1
24 86 38 39 56 97 53 1
25 72 45 36 60 56 73 2
26 41 7 70 42 20 54 1
27 57 97 25 35 45 24 1
28 15 79 28 1 46 17 1
29 86 48 2 19 55 51 2
